
Gurobi 11.0.3 (mac64[x86]) logging started Tue Apr 15 17:26:54 2025

Set parameter LogFile to value "Results/SanityCheck/try_18_big.log"
Set parameter TimeLimit to value 84600
Set parameter Method to value 2
Set parameter Crossover to value 0
Set parameter BarHomogeneous to value 1
Set parameter BarConvTol to value 1e-10
Gurobi Optimizer version 11.0.3 build v11.0.3rc0 (mac64[x86] - Darwin 23.4.0 23E214)

CPU model: Intel(R) Core(TM) i7-1060NG7 CPU @ 1.20GHz
Thread count: 4 physical cores, 8 logical processors, using up to 8 threads

Optimize a model with 1496320 rows, 1917920 columns and 7073808 nonzeros
Model fingerprint: 0x7075ff03
Coefficient statistics:
  Matrix range     [2e-01, 1e+00]
  Objective range  [6e-05, 5e+00]
  Bounds range     [0e+00, 0e+00]
  RHS range        [1e-02, 3e+03]
Presolve removed 1210000 rows and 1390784 columns (presolve time = 5s) ...
Presolve removed 1211792 rows and 1390896 columns
Presolve time: 5.55s
Presolved: 284528 rows, 527120 columns, 1878608 nonzeros
Ordering time: 0.59s

Barrier statistics:
 AA' NZ     : 2.680e+05
 Factor NZ  : 5.389e+06 (roughly 80 MB of memory)
 Factor Ops : 3.490e+09 (less than 1 second per iteration)
 Threads    : 4

                  Objective                Residual
Iter       Primal          Dual         Primal    Dual     Compl     Time
   0   8.46022293e+06  1.73151101e+11  1.48e+04 6.23e+03  4.07e+07     7s
   1  -1.48350787e+07  8.75456403e+10  4.16e+03 6.87e+03  1.33e+07     7s
   2  -1.63464392e+07  7.66380817e+09  9.87e+02 6.72e+02  1.74e+06     7s
   3  -1.54940359e+07  2.00390964e+09  6.23e+01 2.70e+01  1.07e+05     7s
   4  -7.05273011e+06  2.86626775e+08  5.61e+00 3.71e+00  8.19e+03     8s
   5  -3.49371947e+06  1.44695698e+07  3.80e-01 1.56e-01  3.54e+02     8s
   6  -4.13917106e+05  7.33698619e+05  3.13e-02 9.67e-03  1.75e+01     8s
   7   1.07257491e+04  1.06472247e+05  1.56e-03 6.57e-04  1.48e+00     8s
   8   2.75289969e+04  4.73666217e+04  1.48e-04 1.11e-04  3.00e-01     8s
   9   3.00239242e+04  3.65083132e+04  3.89e-05 1.94e-05  9.39e-02     9s
  10   3.11654259e+04  3.41987607e+04  1.47e-05 1.63e-12  4.19e-02     9s
  11   3.17096386e+04  3.31749102e+04  6.25e-06 8.82e-13  1.93e-02     9s
  12   3.20479902e+04  3.27232717e+04  2.12e-06 4.15e-13  8.49e-03     9s
  13   3.21911312e+04  3.24736939e+04  8.10e-07 2.63e-12  3.45e-03     9s
  14   3.22555419e+04  3.23862786e+04  3.46e-07 5.09e-12  1.57e-03    10s
  15   3.23016739e+04  3.23317092e+04  6.54e-08 2.62e-12  3.57e-04    10s
  16   3.23110881e+04  3.23211876e+04  1.67e-08 6.03e-11  1.20e-04    10s
  17   3.23131210e+04  3.23171753e+04  1.62e-08 3.40e-11  4.81e-05    10s
  18   3.23140326e+04  3.23163474e+04  6.26e-09 3.20e-10  2.75e-05    10s
  19   3.23141954e+04  3.23154958e+04  1.74e-08 2.44e-11  1.54e-05    11s
  20   3.23144564e+04  3.23150593e+04  8.21e-09 4.54e-10  7.15e-06    11s
  21   3.23145882e+04  3.23148396e+04  3.96e-09 1.63e-10  2.98e-06    11s
  22   3.23146772e+04  3.23147459e+04  1.13e-09 1.48e-09  8.13e-07    11s
  23   3.23146947e+04  3.23147286e+04  5.92e-10 1.04e-08  4.02e-07    11s
  24   3.23147095e+04  3.23147170e+04  2.19e-10 3.44e-08  8.79e-08    12s
  25   3.23147096e+04  3.23147149e+04  5.12e-09 1.06e-08  6.25e-08    12s
  26   3.23147145e+04  3.23147146e+04  8.50e-08 1.75e-11  1.47e-09    12s
  27   3.23147146e+04  3.23147146e+04  3.21e-08 1.64e-11  5.40e-10    12s
  28   3.23147146e+04  3.23147146e+04  3.19e-08 4.70e-10  5.35e-10    13s
  29   3.23147146e+04  3.23147146e+04  2.79e-09 2.37e-11  2.57e-13    13s

Barrier solved model in 29 iterations and 12.75 seconds (8.57 work units)
Optimal objective 3.23147146e+04

